data/mps_files/pEFS/81_9.mps
NAME foo
ROWS
 N  OBJ
 E  allocateEach[1]
 E  allocateAllCash
 G  findWorstP[1,2]
 G  findWorstP[1,3]
 G  findWorstP[1,4]
 G  findWorstP[1,5]
 G  findWorstP[2,1]
 G  findWorstP[2,3]
 G  findWorstP[2,4]
 G  findWorstP[2,5]
 G  findWorstP[3,1]
 G  findWorstP[3,2]
 G  findWorstP[3,4]
 G  findWorstP[3,5]
 G  findWorstP[4,1]
 G  findWorstP[4,2]
 G  findWorstP[4,3]
 G  findWorstP[4,5]
 G  findWorstP[5,1]
 G  findWorstP[5,2]
 G  findWorstP[5,3]
 G  findWorstP[5,4]
COLUMNS
    z         OBJ       1
    z         findWorstP[1,2]  1
    z         findWorstP[1,3]  1
    z         findWorstP[1,4]  1
    z         findWorstP[1,5]  1
    z         findWorstP[2,1]  1
    z         findWorstP[2,3]  1
    z         findWorstP[2,4]  1
    z         findWorstP[2,5]  1
    z         findWorstP[3,1]  1
    z         findWorstP[3,2]  1
    z         findWorstP[3,4]  1
    z         findWorstP[3,5]  1
    z         findWorstP[4,1]  1
    z         findWorstP[4,2]  1
    z         findWorstP[4,3]  1
    z         findWorstP[4,5]  1
    z         findWorstP[5,1]  1
    z         findWorstP[5,2]  1
    z         findWorstP[5,3]  1
    z         findWorstP[5,4]  1
    cashProportion[1]  allocateAllCash  1
    cashProportion[1]  findWorstP[1,2]  5.4809536859413543e-01
    cashProportion[1]  findWorstP[1,3]  5.4809536859413543e-01
    cashProportion[1]  findWorstP[1,4]  5.4809536859413543e-01
    cashProportion[1]  findWorstP[1,5]  5.4809536859413543e-01
    cashProportion[1]  findWorstP[2,1]  -6.7916327085031247e-01
    cashProportion[1]  findWorstP[3,1]  -6.8577698532437259e-01
    cashProportion[1]  findWorstP[4,1]  -5.9973611610891209e-01
    cashProportion[1]  findWorstP[5,1]  -7.0861678004535145e-01
    cashProportion[2]  allocateAllCash  1
    cashProportion[2]  findWorstP[1,2]  -5.4809536859413543e-01
    cashProportion[2]  findWorstP[2,1]  6.7916327085031247e-01
    cashProportion[2]  findWorstP[2,3]  6.7916327085031247e-01
    cashProportion[2]  findWorstP[2,4]  6.7916327085031247e-01
    cashProportion[2]  findWorstP[2,5]  6.7916327085031247e-01
    cashProportion[2]  findWorstP[3,2]  -6.8577698532437259e-01
    cashProportion[2]  findWorstP[4,2]  -5.9973611610891209e-01
    cashProportion[2]  findWorstP[5,2]  -7.0861678004535145e-01
    cashProportion[3]  allocateAllCash  1
    cashProportion[3]  findWorstP[1,3]  -5.4809536859413543e-01
    cashProportion[3]  findWorstP[2,3]  -6.7916327085031247e-01
    cashProportion[3]  findWorstP[3,1]  6.8577698532437259e-01
    cashProportion[3]  findWorstP[3,2]  6.8577698532437259e-01
    cashProportion[3]  findWorstP[3,4]  6.8577698532437259e-01
    cashProportion[3]  findWorstP[3,5]  6.8577698532437259e-01
    cashProportion[3]  findWorstP[4,3]  -5.9973611610891209e-01
    cashProportion[3]  findWorstP[5,3]  -7.0861678004535145e-01
    cashProportion[4]  allocateAllCash  1
    cashProportion[4]  findWorstP[1,4]  -5.4809536859413543e-01
    cashProportion[4]  findWorstP[2,4]  -6.7916327085031247e-01
    cashProportion[4]  findWorstP[3,4]  -6.8577698532437259e-01
    cashProportion[4]  findWorstP[4,1]  5.9973611610891209e-01
    cashProportion[4]  findWorstP[4,2]  5.9973611610891209e-01
    cashProportion[4]  findWorstP[4,3]  5.9973611610891209e-01
    cashProportion[4]  findWorstP[4,5]  5.9973611610891209e-01
    cashProportion[4]  findWorstP[5,4]  -7.0861678004535145e-01
    cashProportion[5]  allocateAllCash  1
    cashProportion[5]  findWorstP[1,5]  -5.4809536859413543e-01
    cashProportion[5]  findWorstP[2,5]  -6.7916327085031247e-01
    cashProportion[5]  findWorstP[3,5]  -6.8577698532437259e-01
    cashProportion[5]  findWorstP[4,5]  -5.9973611610891209e-01
    cashProportion[5]  findWorstP[5,1]  7.0861678004535145e-01
    cashProportion[5]  findWorstP[5,2]  7.0861678004535145e-01
    cashProportion[5]  findWorstP[5,3]  7.0861678004535145e-01
    cashProportion[5]  findWorstP[5,4]  7.0861678004535145e-01
    MARKER    'MARKER'                 'INTORG'
    x[1,1]    allocateEach[1]  1
    x[1,1]    findWorstP[1,2]  4.5190463140586457e-01
    x[1,1]    findWorstP[1,3]  4.5190463140586457e-01
    x[1,1]    findWorstP[1,4]  4.5190463140586457e-01
    x[1,1]    findWorstP[1,5]  4.5190463140586457e-01
    x[1,1]    findWorstP[2,1]  -3.2083672914968753e-01
    x[1,1]    findWorstP[3,1]  -3.1422301467562747e-01
    x[1,1]    findWorstP[4,1]  -4.0026388389108786e-01
    x[1,1]    findWorstP[5,1]  -2.9138321995464850e-01
    x[2,1]    allocateEach[1]  1
    x[2,1]    findWorstP[1,2]  -4.5190463140586457e-01
    x[2,1]    findWorstP[2,1]  3.2083672914968753e-01
    x[2,1]    findWorstP[2,3]  3.2083672914968753e-01
    x[2,1]    findWorstP[2,4]  3.2083672914968753e-01
    x[2,1]    findWorstP[2,5]  3.2083672914968753e-01
    x[2,1]    findWorstP[3,2]  -3.1422301467562747e-01
    x[2,1]    findWorstP[4,2]  -4.0026388389108786e-01
    x[2,1]    findWorstP[5,2]  -2.9138321995464850e-01
    x[3,1]    allocateEach[1]  1
    x[3,1]    findWorstP[1,3]  -4.5190463140586457e-01
    x[3,1]    findWorstP[2,3]  -3.2083672914968753e-01
    x[3,1]    findWorstP[3,1]  3.1422301467562747e-01
    x[3,1]    findWorstP[3,2]  3.1422301467562747e-01
    x[3,1]    findWorstP[3,4]  3.1422301467562747e-01
    x[3,1]    findWorstP[3,5]  3.1422301467562747e-01
    x[3,1]    findWorstP[4,3]  -4.0026388389108786e-01
    x[3,1]    findWorstP[5,3]  -2.9138321995464850e-01
    x[4,1]    allocateEach[1]  1
    x[4,1]    findWorstP[1,4]  -4.5190463140586457e-01
    x[4,1]    findWorstP[2,4]  -3.2083672914968753e-01
    x[4,1]    findWorstP[3,4]  -3.1422301467562747e-01
    x[4,1]    findWorstP[4,1]  4.0026388389108786e-01
    x[4,1]    findWorstP[4,2]  4.0026388389108786e-01
    x[4,1]    findWorstP[4,3]  4.0026388389108786e-01
    x[4,1]    findWorstP[4,5]  4.0026388389108786e-01
    x[4,1]    findWorstP[5,4]  -2.9138321995464850e-01
    x[5,1]    allocateEach[1]  1
    x[5,1]    findWorstP[1,5]  -4.5190463140586457e-01
    x[5,1]    findWorstP[2,5]  -3.2083672914968753e-01
    x[5,1]    findWorstP[3,5]  -3.1422301467562747e-01
    x[5,1]    findWorstP[4,5]  -4.0026388389108786e-01
    x[5,1]    findWorstP[5,1]  2.9138321995464850e-01
    x[5,1]    findWorstP[5,2]  2.9138321995464850e-01
    x[5,1]    findWorstP[5,3]  2.9138321995464850e-01
    x[5,1]    findWorstP[5,4]  2.9138321995464850e-01
    MARKER    'MARKER'                 'INTEND'
RHS
    RHS1      allocateEach[1]  1
    RHS1      allocateAllCash  1
BOUNDS
 UP BND1      z         1
 MI BND1      cashProportion[1]
 UP BND1      cashProportion[1]  1
 MI BND1      cashProportion[2]
 UP BND1      cashProportion[2]  1
 MI BND1      cashProportion[3]
 UP BND1      cashProportion[3]  1
 MI BND1      cashProportion[4]
 UP BND1      cashProportion[4]  1
 MI BND1      cashProportion[5]
 UP BND1      cashProportion[5]  1
 BV BND1      x[1,1]  
 BV BND1      x[2,1]  
 BV BND1      x[3,1]  
 BV BND1      x[4,1]  
 BV BND1      x[5,1]  
ENDATA
